$molecule
-2 1
  Ni   -1.6516999    2.3091377    0.5532126
  S    0.1297466    3.3631630   -0.0377848
  S   -0.2583333    0.8406638    1.4051081
  S   -2.8725221    3.9069425   -0.1997707
  S   -3.5364548    1.4405842    1.2464420
  C    0.8699143    2.0549794    0.6054916
  C    2.3754975    1.9805021    0.4694269
  C   -4.1065073    2.7596820    0.4127248
  C   -5.5443548    3.1533196    0.2958776
  H    2.6716140    2.9566956    0.0246804
  C    2.2078896    0.1844376   -1.5506303
  H    2.8794206    1.9530701    1.4587846
  H   -5.4932501    4.2188292   -0.0253564
  H   -6.0397503    3.1802207    1.2831265
  C   -5.9331802    1.2878745   -1.6008084
  C   -1.5547300    3.2202487    2.1886334
  N   -1.4903414    3.8136891    3.1799578
 Fe   -1.8331844    0.8423992   -1.8853285
  C   -4.4535111    1.0994204   -1.9110880
  C    0.7487214    0.4598194   -1.7919300
  S    0.1510603    1.7656451   -2.6505010
  S   -0.4339267   -0.7892036   -1.1718394
  S   -3.3604729    2.3136614   -2.8003462
  S   -3.7254860   -0.2553464   -1.2874018
  C   -1.9267782   -0.1935997   -3.6321369
  N   -1.9655655   -0.8186483   -4.6050719
  H    2.1971772   -0.8423951   -1.1313304
  H    2.7626365    0.1184007   -2.5068034
  H   -6.5307802    1.2378301   -2.5370781
  H   -6.2331181    0.4204993   -0.9788657
  C   -6.4145036    2.5263491   -0.8179129
  C    3.0259585    0.9608332   -0.4896400
  H   -6.7003501    3.3253482   -1.5392569
  H   -7.4008194    2.2696017   -0.3622176
  H    3.8736483    1.4764907   -1.0006595
  H    3.5917693    0.2129608    0.1126382
$end

$rem
jobtype opt
method hf
basis 6-31+g*
scf_convergence 5
max_scf_cycles 2000
scf_algorithm diis_gdm
threads 8
mem_total 100000
mem_static 10000
!QSYS wt=24h
$end
