$molecule
-1 1
  Fe   -1.5930713    2.4341447    0.1780128
  S    0.3546681    3.6131072    0.0191196
  S   -0.1936419    0.7666641    0.8321077
  S   -3.0012060    4.0979065   -0.4784166
  S   -3.5386599    1.2478095    0.3317421
  C    0.9677379    2.1068762    0.3607794
  C    2.3979136    1.7838173    0.0923945
  C   -4.1639185    2.7183352   -0.1218754
  C   -5.6422470    2.9365918   -0.1424345
  H    2.9493652    2.6797735   -0.2616364
  H    2.4466032    0.9979668   -0.6900992
  H    2.8685028    1.4069290    1.0229635
  H   -5.8739657    3.9845537   -0.4241038
  H   -6.0570366    2.7362755    0.8673928
  H   -6.1188696    2.2529800   -0.8760391
  C   -1.7860211    3.0177721    2.1130065
  N   -1.8824257    3.3553657    3.2154341
$end

$rem
jobtype opt
method hf
basis 6-31+g*
scf_convergence 4
max_scf_cycles 2000
scf_algorithm diis_gdm
threads 8
mem_total 100000
mem_static 10000
!QSYS wt=24h
$end
