$molecule
0 1
  Ni   -1.6516999    2.3091377    0.5532126
  S    0.1297466    3.3631630   -0.0377848
  S   -0.2583333    0.8406638    1.4051081
  S   -2.8725221    3.9069425   -0.1997707
  S   -3.5364548    1.4405842    1.2464420
  C    0.8699143    2.0549794    0.6054916
  C    2.3754975    1.9805021    0.4694269
  C   -4.1065073    2.7596820    0.4127248
  C   -5.5443548    3.1533196    0.2958776
  H    2.6716140    2.9566956    0.0246804
  H    2.8794206    1.9530701    1.4587846
  H   -5.4932501    4.2188292   -0.0253564
  H   -6.0397503    3.1802207    1.2831265
  H    2.6411414    1.1092283   -0.0920136
  H   -6.0701634    2.4784783   -0.3467845
$end

$rem
jobtype opt
method hf
basis 6-31g
scf_convergence 4
max_scf_cycles 2000
scf_algorithm diis_gdm
threads 8
mem_total 100000
mem_static 10000
!QSYS wt=24h
$end
