$molecule
1 1
  V   -1.3928428    3.4276916    1.7285684
  N   -1.4007803    5.4290640    2.1024849
  N   -1.3846956    1.4069223    1.3509550
  S   -3.2854010    3.2424194    3.0993454
  S   -2.9089147    3.4927599   -0.1127925
 Cl    0.0537924    3.2673202    3.5715473
 Cl    0.4393618    3.5835570    0.2587633
  C   -0.3068783    6.2027752    1.8300081
  C   -0.2755596    7.5359338    2.2089901
  C   -1.3716523    8.0882040    2.8538916
  C   -2.4804660    7.2950218    3.1260235
  C   -2.4613772    5.9422468    2.7691445
  C   -2.2484971    0.8772659    0.4200157
  C   -2.2156301   -0.4940952    0.1489177
  C   -1.2825523   -1.2999418    0.7903532
  C   -0.4029913   -0.7432398    1.7033117
  C   -0.4686989    0.6091689    1.9787051
  C   -3.2253688    1.7255830   -0.3776057
  C   -4.5406343    3.6849421    0.7335825
  C   -4.7416419    2.9745863    2.0915548
  C   -3.6029201    5.0736186    3.1824408
  H    0.5579589    5.7944546    1.3596643
  H    0.6059944    8.1278024    2.0147412
  H   -1.3517944    9.1207787    3.1637826
  H   -3.3268561    7.7154534    3.6489407
  H   -2.8867631   -0.9273423   -0.5779844
  H   -1.2276686   -2.3526555    0.5684542
  H    0.3404559   -1.3503594    2.1967523
  H    0.2303148    1.0056713    2.6733142
  H   -4.2513372    1.4070166   -0.1101090
  H   -3.0998074    1.5275616   -1.4564302
  H   -5.3631395    3.3749763    0.0622383
  H   -4.6677957    4.7674831    0.7647144
  H   -4.8499405    1.8808606    1.9483916
  H   -5.6622725    3.3273634    2.5988651
  H   -3.8958614    5.3117676    4.2168842
  H   -4.4719845    5.4317242    2.6289040
$end

$rem
jobtype opt
method b97m-d3
basis 6-31g
scf_convergence 4
max_scf_cycles 2000
scf_algorithm diis_gdm
threads 8
mem_total 200000
mem_static 20000
!QSYS wt=24h
$end
