NumberOfAtoms   55
NumberOfSpecies 2
%block ChemicalSpeciesLabel
  1  11  Na
  2  -11  Nas
%endblock ChemicalSpeciesLabel
ZM.UnitsLength   Ang
%block Zmatrix
cartesian
1  0.00000  -0.00000  0.00000  1  1  1  1  Na
1  3.03758  -0.00000  -1.87733  1  1  1  2  Na
1  3.03758  -0.00000  1.87733  1  1  1  3  Na
1  -3.03758  -0.00000  -1.87733  1  1  1  4  Na
1  -3.03758  -0.00000  1.87733  1  1  1  5  Na
1  -1.87733  3.03758  0.00000  1  1  1  6  Na
1  1.87733  3.03758  0.00000  1  1  1  7  Na
1  -1.87733  -3.03758  0.00000  1  1  1  8  Na
1  1.87733  -3.03758  0.00000  1  1  1  9  Na
1  0.00000  -1.87733  3.03758  1  1  1  10  Na
1  0.00000  1.87733  3.03758  1  1  1  11  Na
1  0.00000  -1.87733  -3.03758  1  1  1  12  Na
1  0.00000  1.87733  -3.03758  1  1  1  13  Na
2  6.07516  -0.00000  -3.75466  1  1  1  14  Nas
2  6.07516  -0.00000  0.00000  1  1  1  15  Nas
2  6.07516  -0.00000  3.75466  1  1  1  16  Nas
2  -6.07516  -0.00000  -3.75466  1  1  1  17  Nas
2  -6.07516  -0.00000  0.00000  1  1  1  18  Nas
2  -6.07516  -0.00000  3.75466  1  1  1  19  Nas
2  -3.75466  6.07516  0.00000  1  1  1  20  Nas
2  0.00000  6.07516  0.00000  1  1  1  21  Nas
2  3.75466  6.07516  0.00000  1  1  1  22  Nas
2  -3.75466  -6.07516  0.00000  1  1  1  23  Nas
2  0.00000  -6.07516  0.00000  1  1  1  24  Nas
2  3.75466  -6.07516  0.00000  1  1  1  25  Nas
2  0.00000  -3.75466  6.07516  1  1  1  26  Nas
2  0.00000  -0.00000  6.07516  1  1  1  27  Nas
2  0.00000  3.75466  6.07516  1  1  1  28  Nas
2  0.00000  -3.75466  -6.07516  1  1  1  29  Nas
2  0.00000  -0.00000  -6.07516  1  1  1  30  Nas
2  0.00000  3.75466  -6.07516  1  1  1  31  Nas
2  3.03758  -1.87733  4.91491  1  1  1  32  Nas
2  3.03758  1.87733  4.91491  1  1  1  33  Nas
2  3.03758  -1.87733  -4.91491  1  1  1  34  Nas
2  3.03758  1.87733  -4.91491  1  1  1  35  Nas
2  -3.03758  -1.87733  4.91491  1  1  1  36  Nas
2  -3.03758  1.87733  4.91491  1  1  1  37  Nas
2  -3.03758  -1.87733  -4.91491  1  1  1  38  Nas
2  -3.03758  1.87733  -4.91491  1  1  1  39  Nas
2  4.91491  3.03758  -1.87733  1  1  1  40  Nas
2  4.91491  3.03758  1.87733  1  1  1  41  Nas
2  -4.91491  3.03758  -1.87733  1  1  1  42  Nas
2  -4.91491  3.03758  1.87733  1  1  1  43  Nas
2  4.91491  -3.03758  -1.87733  1  1  1  44  Nas
2  4.91491  -3.03758  1.87733  1  1  1  45  Nas
2  -4.91491  -3.03758  -1.87733  1  1  1  46  Nas
2  -4.91491  -3.03758  1.87733  1  1  1  47  Nas
2  -1.87733  4.91491  3.03758  1  1  1  48  Nas
2  1.87733  4.91491  3.03758  1  1  1  49  Nas
2  -1.87733  -4.91491  3.03758  1  1  1  50  Nas
2  1.87733  -4.91491  3.03758  1  1  1  51  Nas
2  -1.87733  4.91491  -3.03758  1  1  1  52  Nas
2  1.87733  4.91491  -3.03758  1  1  1  53  Nas
2  -1.87733  -4.91491  -3.03758  1  1  1  54  Nas
2  1.87733  -4.91491  -3.03758  1  1  1  55  Nas
%endblock Zmatrix