DM.UseSaveDM .true.
MD.UseSaveXV .false.
MeshCutoff 200 Ry

LatticeConstant 30 Bohr
PAO.EnergyShift   3 meV


AtomicCoordinatesFormat  Ang
AtomCoorFormatOut  Ang
%block AtomicCoordinatesAndAtomicSpecies
    1.39942749    0.00000000    0.00000000   1       1  C
    0.69937309    1.21133642    0.00000000   1       2  C
   -0.69937309    1.21133642    0.00000000   1       3  C
   -1.39942750    0.00000000    0.00000000   1       4  C
   -0.69937309   -1.21133642    0.00000000   1       5  C
    0.69937309   -1.21133642    0.00000000   1       6  C
    2.50712180    0.00000000    0.00000000   2       7  H
    1.25369812    2.17038400    0.00000000   2       8  H
   -1.25369812    2.17038400    0.00000000   2       9  H
   -2.50712180    0.00000000    0.00000000   2      10  H
   -1.25369812   -2.17038400    0.00000000   2      11  H
    1.25369812   -2.17038400    0.00000000   2      12  H
%endblock AtomicCoordinatesAndAtomicSpecies

%block ChemicalSpeciesLabel
 1  6  C      # Species index, atomic number, species label
 2  1  H
%endblock ChemicalSpeciesLabel

NumberOfAtoms              12
NumberOfSpecies            2

### Molecular dynamics
ElectronicTemperature      100 K
MD.TypeOfRun               CG
MD.NumCGsteps              0
MaxSCFIterations           100

### Exports data for TDDFT and GWA
COOP.Write               .true.
WriteDenchar             .true.

