
    xml.write                  .true.
    PAO.EnergyShift            100 meV
    %block ChemicalSpeciesLabel
     1  11  Na
    %endblock ChemicalSpeciesLabel
    
    NumberOfAtoms       2
    NumberOfSpecies     1
    %block AtomicCoordinatesAndAtomicSpecies
        0.77573521    0.00000000    0.00000000   1
       -0.77573521    0.00000000    0.00000000   1
    %endblock AtomicCoordinatesAndAtomicSpecies
    
    MD.NumCGsteps              0
    COOP.Write                 .true.
    WriteDenchar               .true.
    
