NumberOfAtoms   147
NumberOfSpecies 2
%block ChemicalSpeciesLabel
  1  47  Ag
  2  -1  Ags
%endblock ChemicalSpeciesLabel
ZM.UnitsLength   Ang
%block Zmatrix
cartesian
1  0.00000  0.00000  0.00000  1  1  1  1  Ag
1  2.40600  0.00000  -1.48699  1  1  1  2  Ag
1  2.40600  0.00000  1.48699  1  1  1  3  Ag
1  -2.40600  0.00000  -1.48699  1  1  1  4  Ag
1  -2.40600  0.00000  1.48699  1  1  1  5  Ag
1  -1.48699  2.40600  0.00000  1  1  1  6  Ag
1  1.48699  2.40600  0.00000  1  1  1  7  Ag
1  -1.48699  -2.40600  0.00000  1  1  1  8  Ag
1  1.48699  -2.40600  0.00000  1  1  1  9  Ag
1  0.00000  -1.48699  2.40600  1  1  1  10  Ag
1  0.00000  1.48699  2.40600  1  1  1  11  Ag
1  0.00000  -1.48699  -2.40600  1  1  1  12  Ag
1  0.00000  1.48699  -2.40600  1  1  1  13  Ag
1  4.81201  0.00000  -2.97398  1  1  1  14  Ag
1  4.81201  0.00000  0.00000  1  1  1  15  Ag
1  4.81201  0.00000  2.97398  1  1  1  16  Ag
1  -4.81201  0.00000  -2.97398  1  1  1  17  Ag
1  -4.81201  0.00000  0.00000  1  1  1  18  Ag
1  -4.81201  0.00000  2.97398  1  1  1  19  Ag
1  -2.97398  4.81201  0.00000  1  1  1  20  Ag
1  0.00000  4.81201  0.00000  1  1  1  21  Ag
1  2.97398  4.81201  0.00000  1  1  1  22  Ag
1  -2.97398  -4.81201  0.00000  1  1  1  23  Ag
1  0.00000  -4.81201  0.00000  1  1  1  24  Ag
1  2.97398  -4.81201  0.00000  1  1  1  25  Ag
1  0.00000  -2.97398  4.81201  1  1  1  26  Ag
1  0.00000  0.00000  4.81201  1  1  1  27  Ag
1  0.00000  2.97398  4.81201  1  1  1  28  Ag
1  0.00000  -2.97398  -4.81201  1  1  1  29  Ag
1  0.00000  0.00000  -4.81201  1  1  1  30  Ag
1  0.00000  2.97398  -4.81201  1  1  1  31  Ag
1  2.40600  -1.48699  3.89300  1  1  1  32  Ag
1  2.40600  1.48699  3.89300  1  1  1  33  Ag
1  2.40600  -1.48699  -3.89300  1  1  1  34  Ag
1  2.40600  1.48699  -3.89300  1  1  1  35  Ag
1  -2.40600  -1.48699  3.89300  1  1  1  36  Ag
1  -2.40600  1.48699  3.89300  1  1  1  37  Ag
1  -2.40600  -1.48699  -3.89300  1  1  1  38  Ag
1  -2.40600  1.48699  -3.89300  1  1  1  39  Ag
1  3.89300  2.40600  -1.48699  1  1  1  40  Ag
1  3.89300  2.40600  1.48699  1  1  1  41  Ag
1  -3.89300  2.40600  -1.48699  1  1  1  42  Ag
1  -3.89300  2.40600  1.48699  1  1  1  43  Ag
1  3.89300  -2.40600  -1.48699  1  1  1  44  Ag
1  3.89300  -2.40600  1.48699  1  1  1  45  Ag
1  -3.89300  -2.40600  -1.48699  1  1  1  46  Ag
1  -3.89300  -2.40600  1.48699  1  1  1  47  Ag
1  -1.48699  3.89300  2.40600  1  1  1  48  Ag
1  1.48699  3.89300  2.40600  1  1  1  49  Ag
1  -1.48699  -3.89300  2.40600  1  1  1  50  Ag
1  1.48699  -3.89300  2.40600  1  1  1  51  Ag
1  -1.48699  3.89300  -2.40600  1  1  1  52  Ag
1  1.48699  3.89300  -2.40600  1  1  1  53  Ag
1  -1.48699  -3.89300  -2.40600  1  1  1  54  Ag
1  1.48699  -3.89300  -2.40600  1  1  1  55  Ag
2  7.21801  0.00000  -4.46098  0  0  0  56  Ag
2  7.21801  0.00000  -1.48699  0  0  0  57  Ag
2  7.21801  0.00000  1.48699  0  0  0  58  Ag
2  7.21801  0.00000  4.46098  0  0  0  59  Ag
2  -7.21801  0.00000  -4.46098  0  0  0  60  Ag
2  -7.21801  0.00000  -1.48699  0  0  0  61  Ag
2  -7.21801  0.00000  1.48699  0  0  0  62  Ag
2  -7.21801  0.00000  4.46098  0  0  0  63  Ag
2  -4.46098  7.21801  0.00000  0  0  0  64  Ag
2  -1.48699  7.21801  0.00000  0  0  0  65  Ag
2  1.48699  7.21801  0.00000  0  0  0  66  Ag
2  4.46098  7.21801  0.00000  0  0  0  67  Ag
2  -4.46098  -7.21801  0.00000  0  0  0  68  Ag
2  -1.48699  -7.21801  0.00000  0  0  0  69  Ag
2  1.48699  -7.21801  0.00000  0  0  0  70  Ag
2  4.46098  -7.21801  0.00000  0  0  0  71  Ag
2  0.00000  -4.46098  7.21801  0  0  0  72  Ag
2  0.00000  -1.48699  7.21801  0  0  0  73  Ag
2  0.00000  1.48699  7.21801  0  0  0  74  Ag
2  0.00000  4.46098  7.21801  0  0  0  75  Ag
2  0.00000  -4.46098  -7.21801  0  0  0  76  Ag
2  0.00000  -1.48699  -7.21801  0  0  0  77  Ag
2  0.00000  1.48699  -7.21801  0  0  0  78  Ag
2  0.00000  4.46098  -7.21801  0  0  0  79  Ag
2  4.81201  -1.48699  5.37999  0  0  0  80  Ag
2  2.40600  -2.97398  6.29900  0  0  0  81  Ag
2  4.81201  1.48699  5.37999  0  0  0  82  Ag
2  2.40600  0.00000  6.29900  0  0  0  83  Ag
2  2.40600  2.97398  6.29900  0  0  0  84  Ag
2  4.81201  -1.48699  -5.37999  0  0  0  85  Ag
2  2.40600  -2.97398  -6.29900  0  0  0  86  Ag
2  4.81201  1.48699  -5.37999  0  0  0  87  Ag
2  2.40600  0.00000  -6.29900  0  0  0  88  Ag
2  2.40600  2.97398  -6.29900  0  0  0  89  Ag
2  -4.81201  -1.48699  5.37999  0  0  0  90  Ag
2  -2.40600  -2.97398  6.29900  0  0  0  91  Ag
2  -4.81201  1.48699  5.37999  0  0  0  92  Ag
2  -2.40600  0.00000  6.29900  0  0  0  93  Ag
2  -2.40600  2.97398  6.29900  0  0  0  94  Ag
2  -4.81201  -1.48699  -5.37999  0  0  0  95  Ag
2  -2.40600  -2.97398  -6.29900  0  0  0  96  Ag
2  -4.81201  1.48699  -5.37999  0  0  0  97  Ag
2  -2.40600  0.00000  -6.29900  0  0  0  98  Ag
2  -2.40600  2.97398  -6.29900  0  0  0  99  Ag
2  5.37999  4.81201  -1.48699  0  0  0  100  Ag
2  6.29900  2.40600  -2.97398  0  0  0  101  Ag
2  5.37999  4.81201  1.48699  0  0  0  102  Ag
2  6.29900  2.40600  0.00000  0  0  0  103  Ag
2  6.29900  2.40600  2.97398  0  0  0  104  Ag
2  -5.37999  4.81201  -1.48699  0  0  0  105  Ag
2  -6.29900  2.40600  -2.97398  0  0  0  106  Ag
2  -5.37999  4.81201  1.48699  0  0  0  107  Ag
2  -6.29900  2.40600  0.00000  0  0  0  108  Ag
2  -6.29900  2.40600  2.97398  0  0  0  109  Ag
2  5.37999  -4.81201  -1.48699  0  0  0  110  Ag
2  6.29900  -2.40600  -2.97398  0  0  0  111  Ag
2  5.37999  -4.81201  1.48699  0  0  0  112  Ag
2  6.29900  -2.40600  0.00000  0  0  0  113  Ag
2  6.29900  -2.40600  2.97398  0  0  0  114  Ag
2  -5.37999  -4.81201  -1.48699  0  0  0  115  Ag
2  -6.29900  -2.40600  -2.97398  0  0  0  116  Ag
2  -5.37999  -4.81201  1.48699  0  0  0  117  Ag
2  -6.29900  -2.40600  0.00000  0  0  0  118  Ag
2  -6.29900  -2.40600  2.97398  0  0  0  119  Ag
2  -1.48699  5.37999  4.81201  0  0  0  120  Ag
2  -2.97398  6.29900  2.40600  0  0  0  121  Ag
2  1.48699  5.37999  4.81201  0  0  0  122  Ag
2  0.00000  6.29900  2.40600  0  0  0  123  Ag
2  2.97398  6.29900  2.40600  0  0  0  124  Ag
2  -1.48699  -5.37999  4.81201  0  0  0  125  Ag
2  -2.97398  -6.29900  2.40600  0  0  0  126  Ag
2  1.48699  -5.37999  4.81201  0  0  0  127  Ag
2  0.00000  -6.29900  2.40600  0  0  0  128  Ag
2  2.97398  -6.29900  2.40600  0  0  0  129  Ag
2  -1.48699  5.37999  -4.81201  0  0  0  130  Ag
2  -2.97398  6.29900  -2.40600  0  0  0  131  Ag
2  1.48699  5.37999  -4.81201  0  0  0  132  Ag
2  0.00000  6.29900  -2.40600  0  0  0  133  Ag
2  2.97398  6.29900  -2.40600  0  0  0  134  Ag
2  -1.48699  -5.37999  -4.81201  0  0  0  135  Ag
2  -2.97398  -6.29900  -2.40600  0  0  0  136  Ag
2  1.48699  -5.37999  -4.81201  0  0  0  137  Ag
2  0.00000  -6.29900  -2.40600  0  0  0  138  Ag
2  2.97398  -6.29900  -2.40600  0  0  0  139  Ag
2  3.89300  -3.89300  3.89300  0  0  0  140  Ag
2  3.89300  3.89300  3.89300  0  0  0  141  Ag
2  3.89300  -3.89300  -3.89300  0  0  0  142  Ag
2  3.89300  3.89300  -3.89300  0  0  0  143  Ag
2  -3.89300  -3.89300  3.89300  0  0  0  144  Ag
2  -3.89300  3.89300  3.89300  0  0  0  145  Ag
2  -3.89300  -3.89300  -3.89300  0  0  0  146  Ag
2  -3.89300  3.89300  -3.89300  0  0  0  147  Ag
%endblock Zmatrix