NumberOfAtoms   13
NumberOfSpecies 1
%block ChemicalSpeciesLabel
    1    47 Ag   
%endblock ChemicalSpeciesLabel
ZM.UnitsLength   Ang
%block Zmatrix
cartesian
1   -0.00000    0.00000   -0.00000 1 1 1 1 Ag
1    2.40600    0.00000   -1.48699 1 1 1 2 Ag
1    2.40600    0.00000    1.48699 1 1 1 3 Ag
1   -2.40600    0.00000   -1.48699 1 1 1 4 Ag
1   -2.40600    0.00000    1.48699 1 1 1 5 Ag
1   -1.48699    2.40600   -0.00000 1 1 1 6 Ag
1    1.48699    2.40600   -0.00000 1 1 1 7 Ag
1   -1.48699   -2.40600   -0.00000 1 1 1 8 Ag
1    1.48699   -2.40600   -0.00000 1 1 1 9 Ag
1   -0.00000   -1.48699    2.40600 1 1 1 10 Ag
1   -0.00000    1.48699    2.40600 1 1 1 11 Ag
1   -0.00000   -1.48699   -2.40600 1 1 1 12 Ag
1   -0.00000    1.48699   -2.40600 1 1 1 13 Ag
%endblock Zmatrix
