 NumberOfAtoms             60
 NumberOfSpecies            1

 %block ChemicalSpeciesLabel
           1           6 C 
 %endblock ChemicalSpeciesLabel

 AtomicCoordinatesFormat    Ang
 %block AtomicCoordinatesAndAtomicSpecies
    1.604457000    3.166913000    0.000000000    1
    2.700924000    2.303923000    0.000000000    1
   -2.700924000   -2.303923000    0.000000000    1
   -1.604457000   -3.166913000    0.000000000    1
    0.431223000    0.548322000    3.480061000    1
   -0.431223000   -0.548322000    3.480061000    1
    0.431223000    0.548322000   -3.480061000    1
   -0.431223000   -0.548322000   -3.480061000    1
   -2.734829000    2.152520000    0.697709000    1
   -2.734829000    2.152520000   -0.697709000    1
    2.734829000   -2.152520000    0.697709000    1
    2.734829000   -2.152520000   -0.697709000    1
    0.755448000    3.263713000    1.175939000    1
    0.755448000    3.263713000   -1.175939000    1
    2.993912000    1.501464000    1.175883000    1
    2.993912000    1.501464000   -1.175883000    1
   -2.993912000   -1.501464000    1.175883000    1
   -2.993912000   -1.501464000   -1.175883000    1
   -0.755448000   -3.263713000    1.175939000    1
   -0.755448000   -3.263713000   -1.175939000    1
   -0.043284000    1.847013000    3.031849000    1
    1.804581000    0.392228000    3.031082000    1
   -1.804581000   -0.392228000    3.031082000    1
    0.043284000   -1.847013000    3.031849000    1
   -0.043284000    1.847013000   -3.031849000    1
    1.804581000    0.392228000   -3.031082000    1
   -1.804581000   -0.392228000   -3.031082000    1
    0.043284000   -1.847013000   -3.031849000    1
   -1.655226000    2.799142000    1.424672000    1
   -3.108898000    0.950736000    1.424281000    1
   -1.655226000    2.799142000   -1.424672000    1
   -3.108898000    0.950736000   -1.424281000    1
    3.108898000   -0.950736000    1.424281000    1
    1.655226000   -2.799142000    1.424672000    1
    3.108898000   -0.950736000   -1.424281000    1
    1.655226000   -2.799142000   -1.424672000    1
    1.036861000    2.493129000    2.304765000    1
    1.036861000    2.493129000   -2.304765000    1
    2.179127000    1.594300000    2.304951000    1
    2.179127000    1.594300000   -2.304951000    1
   -2.179127000   -1.594300000    2.304951000    1
   -2.179127000   -1.594300000   -2.304951000    1
   -1.036861000   -2.493129000    2.304765000    1
   -1.036861000   -2.493129000   -2.304765000    1
   -1.362048000    1.997013000    2.600783000    1
    2.260400000   -0.854329000    2.600212000    1
   -2.260400000    0.854329000    2.600212000    1
    1.362048000   -1.997013000    2.600783000    1
   -1.362048000    1.997013000   -2.600783000    1
    2.260400000   -0.854329000   -2.600212000    1
   -2.260400000    0.854329000   -2.600212000    1
    1.362048000   -1.997013000   -2.600783000    1
   -0.618092000    3.419593000    0.726752000    1
   -3.467979000   -0.203063000    0.726627000    1
   -0.618092000    3.419593000   -0.726752000    1
   -3.467979000   -0.203063000   -0.726627000    1
    3.467979000    0.203063000    0.726627000    1
    0.618092000   -3.419593000    0.726752000    1
    3.467979000    0.203063000   -0.726627000    1
    0.618092000   -3.419593000   -0.726752000    1
 %endblock AtomicCoordinatesAndAtomicSpecies
