SystemName          Water 

PAO.EnergyShift 100 meV

%block ChemicalSpeciesLabel
 1  8  O     
 2  1  H
%endblock ChemicalSpeciesLabel

AtomicCoordinatesFormat  Ang
AtomCoorFormatOut Ang

NumberOfAtoms       3
NumberOfSpecies     2

%block AtomicCoordinatesAndAtomicSpecies
    0.00000000   -0.00164806    0.00000000   1       1  O
    0.77573521    0.59332141    0.00000000   2       2  H
   -0.77573521    0.59332141    0.00000000   2       3  H
%endblock AtomicCoordinatesAndAtomicSpecies

### Molecular dynamics 
ElectronicTemperature      100 K
MD.TypeOfRun               CG
MD.NumCGsteps              1000
MaxSCFIterations           100

# Write .WFSX and .HSX files
COOP.Write     .true.
# Write .DIM and .PLD files
WriteDenchar   .true.
