NumberOfAtoms   55
NumberOfSpecies 2
%block ChemicalSpeciesLabel
    1   -47 Ags    
    2    47 Ag   
%endblock ChemicalSpeciesLabel
ZM.UnitsLength   Ang
%block Zmatrix
cartesian
2   -0.00000    0.00000   -0.00000 1 1 1 1 Ag
2    2.40600    0.00000   -1.48699 1 1 1 2 Ag
2    2.40600    0.00000    1.48699 1 1 1 3 Ag
2   -2.40600    0.00000   -1.48699 1 1 1 4 Ag
2   -2.40600    0.00000    1.48699 1 1 1 5 Ag
2   -1.48699    2.40600   -0.00000 1 1 1 6 Ag
2    1.48699    2.40600   -0.00000 1 1 1 7 Ag
2   -1.48699   -2.40600   -0.00000 1 1 1 8 Ag
2    1.48699   -2.40600   -0.00000 1 1 1 9 Ag
2   -0.00000   -1.48699    2.40600 1 1 1 10 Ag
2   -0.00000    1.48699    2.40600 1 1 1 11 Ag
2   -0.00000   -1.48699   -2.40600 1 1 1 12 Ag
2   -0.00000    1.48699   -2.40600 1 1 1 13 Ag
1    4.81201    0.00000   -2.97398 0 0 0 14 X
1    4.81201    0.00000   -0.00000 0 0 0 15 X
1    4.81201    0.00000    2.97398 0 0 0 16 X
1   -4.81201    0.00000   -2.97398 0 0 0 17 X
1   -4.81201    0.00000   -0.00000 0 0 0 18 X
1   -4.81201    0.00000    2.97398 0 0 0 19 X
1   -2.97398    4.81201   -0.00000 0 0 0 20 X
1   -0.00000    4.81201   -0.00000 0 0 0 21 X
1    2.97398    4.81201   -0.00000 0 0 0 22 X
1   -2.97398   -4.81201   -0.00000 0 0 0 23 X
1   -0.00000   -4.81201   -0.00000 0 0 0 24 X
1    2.97398   -4.81201   -0.00000 0 0 0 25 X
1   -0.00000   -2.97398    4.81201 0 0 0 26 X
1   -0.00000    0.00000    4.81201 0 0 0 27 X
1   -0.00000    2.97398    4.81201 0 0 0 28 X
1   -0.00000   -2.97398   -4.81201 0 0 0 29 X
1   -0.00000    0.00000   -4.81201 0 0 0 30 X
1   -0.00000    2.97398   -4.81201 0 0 0 31 X
1    2.40600   -1.48699    3.89300 0 0 0 32 X
1    2.40600    1.48699    3.89300 0 0 0 33 X
1    2.40600   -1.48699   -3.89300 0 0 0 34 X
1    2.40600    1.48699   -3.89300 0 0 0 35 X
1   -2.40600   -1.48699    3.89300 0 0 0 36 X
1   -2.40600    1.48699    3.89300 0 0 0 37 X
1   -2.40600   -1.48699   -3.89300 0 0 0 38 X
1   -2.40600    1.48699   -3.89300 0 0 0 39 X
1    3.89300    2.40600   -1.48699 0 0 0 40 X
1    3.89300    2.40600    1.48699 0 0 0 41 X
1   -3.89300    2.40600   -1.48699 0 0 0 42 X
1   -3.89300    2.40600    1.48699 0 0 0 43 X
1    3.89300   -2.40600   -1.48699 0 0 0 44 X
1    3.89300   -2.40600    1.48699 0 0 0 45 X
1   -3.89300   -2.40600   -1.48699 0 0 0 46 X
1   -3.89300   -2.40600    1.48699 0 0 0 47 X
1   -1.48699    3.89300    2.40600 0 0 0 48 X
1    1.48699    3.89300    2.40600 0 0 0 49 X
1   -1.48699   -3.89300    2.40600 0 0 0 50 X
1    1.48699   -3.89300    2.40600 0 0 0 51 X
1   -1.48699    3.89300   -2.40600 0 0 0 52 X
1    1.48699    3.89300   -2.40600 0 0 0 53 X
1   -1.48699   -3.89300   -2.40600 0 0 0 54 X
1    1.48699   -3.89300   -2.40600 0 0 0 55 X
%endblock Zmatrix
