SystemName          Lithium Hydride 
SystemLabel         lih

PAO.SplitNorm       0.2

%block ChemicalSpeciesLabel
1  1  H.lih
2  3  Li.lih
%endblock ChemicalSpeciesLabel

AtomicCoordinatesFormat  Ang
AtomCoorFormatOut Ang

NumberOfAtoms       2
NumberOfSpecies     2

%block AtomicCoordinatesAndAtomicSpecies
    0.83473815    0.64306027   -0.00000000   1       1  H
   -0.80324268    0.62472022    0.00000000   2       2  Li
%endblock AtomicCoordinatesAndAtomicSpecies

### Molecular dynamics 
ElectronicTemperature      300 K
MD.TypeOfRun               CG
MD.NumCGsteps              100
MaxSCFIterations           100

COOP.Write     .true.
WriteDenchar   .true.
xml.write      .true.
