SystemName          Silicon dimer 
SystemLabel         si2

%block ChemicalSpeciesLabel
 1  14  Si
%endblock ChemicalSpeciesLabel

AtomicCoordinatesFormat  Ang
AtomCoorFormatOut Ang

NumberOfAtoms       2
NumberOfSpecies     1

%block AtomicCoordinatesAndAtomicSpecies
    0.55843945    0.63860400    0.00000000   1       1  N.gga
   -0.55843944    0.63860400    0.00000000   1       2  N.gga
%endblock AtomicCoordinatesAndAtomicSpecies

### Molecular dynamics 
MD.TypeOfRun               CG
MD.NumCGsteps              1000
MD.MaxForceTol             0.04 eV/Ang
MD.UseSaveXV               .true.

DM.UseSaveDM               .true.
DM.Tolerance               0.0001
DM.MixingWeight            0.15
DM.NumberPulay             4

ElectronicTemperature      300 K
MaxSCFIterations           400
UseSaveData               .true.
MeshCutOff                250 Ry

COOP.Write     .true.
WriteDenchar   .true.
xml.write      .true.
