#************************************************************************************
#*                   Generated by cif2cell 1.1.5 2014-04-17 6:36                    *
#*  T. Bjorkman, Comp. Phys. Commun. 182, 1183-1186 (2011). Please cite generously. *
#*                                                                                  *
#*                Data obtained from COD. Reference number : 1011023                *
#*                            H2 O   (Dihydrogen oxide)                             *
#*    Bernal, J D and Fowler, R H, Journal of Chemical Physics 1, 515-548 (1933)    *
#************************************************************************************
AtomicCoordinatesFormat     Fractional
LatticeConstant             7.82 Ang
NumberOfAtoms               36
NumberOfSpecies             2
SpinPolarized               .true.
%block LatticeVectors
  0.866025403784439  -0.500000000000000   0.000000000000000 
  0.000000000000000   1.000000000000000   0.000000000000000 
  0.000000000000000   0.000000000000000   0.941176470588235 
%endblock LatticeVectors
%block AtomicCoordinatesAndAtomicSpecies
  0.333333333333333   0.000000000000000   0.174000000000000    1
  0.666666666666667   0.000000000000000   0.674000000000000    1
  0.333333333333333   0.333333333333333   0.674000000000000    1
  0.000000000000000   0.333333333333333   0.174000000000000    1
  0.000000000000000   0.666666666666667   0.674000000000000    1
  0.666666666666667   0.666666666666667   0.174000000000000    1
  0.438000000000000   0.000000000000000   0.026000000000000    1
  0.562000000000000   0.000000000000000   0.526000000000000    1
  0.438000000000000   0.438000000000000   0.526000000000000    1
  0.000000000000000   0.438000000000000   0.026000000000000    1
  0.000000000000000   0.562000000000000   0.526000000000000    1
  0.562000000000000   0.562000000000000   0.026000000000000    1
  0.772000000000000   0.105000000000000   0.975000000000000    1
  0.228000000000000   0.895000000000000   0.475000000000000    1
  0.667000000000000   0.895000000000000   0.975000000000000    1
  0.667000000000000   0.772000000000000   0.475000000000000    1
  0.105000000000000   0.772000000000000   0.975000000000000    1
  0.333000000000000   0.105000000000000   0.475000000000000    1
  0.105000000000000   0.333000000000000   0.475000000000000    1
  0.333000000000000   0.228000000000000   0.975000000000000    1
  0.895000000000000   0.667000000000000   0.975000000000000    1
  0.895000000000000   0.228000000000000   0.475000000000000    1
  0.228000000000000   0.333000000000000   0.975000000000000    1
  0.772000000000000   0.667000000000000   0.475000000000000    1
  0.333333333333333   0.000000000000000   0.062500000000000    2
  0.666666666666667   0.000000000000000   0.562500000000000    2
  0.333333333333333   0.333333333333333   0.562500000000000    2
  0.000000000000000   0.333333333333333   0.062500000000000    2
  0.000000000000000   0.666666666666667   0.562500000000000    2
  0.666666666666667   0.666666666666667   0.062500000000000    2
  0.666666666666667   0.000000000000000   0.937500000000000    2
  0.333333333333333   0.000000000000000   0.437500000000000    2
  0.666666666666667   0.666666666666667   0.437500000000000    2
  0.000000000000000   0.666666666666667   0.937500000000000    2
  0.000000000000000   0.333333333333333   0.437500000000000    2
  0.333333333333333   0.333333333333333   0.937500000000000    2
%endblock AtomicCoordinatesAndAtomicSpecies
%block ChemicalSpeciesLabel
1       1       H       
2       8       O       
%endblock ChemicalSpeciesLabel

%block kgrid_Monkhorst_Pack
2 0 0 0.0
0 2 0 0.0
0 0 2 0.0
%endblock kgrid_Monkhorst_Pack

PAO.EnergyShift  200 meV

DM.UseSaveDM   .true.
DM.NumberPulay  3
DM.Tolerance    1e-4
DM.MixingWeight 0.5

### Molecular dynamics 
ElectronicTemperature      300 K
MD.TypeOfRun               CG
MD.NumCGsteps              0
MaxSCFIterations           1000

DM.UseSaveDM .true.

# Write .WFSX and .HSX files
COOP.Write     .true.
# Write .DIM and .PLD files
WriteDenchar   .true.
